(set-info :smt-lib-version 2.6)
(set-logic QF_LIA)
(set-info :source |
Older mathsat benchmarks.  Contact Mathsat group at http://mathsat.itc.it/ for
more information.

This benchmark was automatically translated into SMT-LIB format from
CVC format using CVC Lite
|)
(set-info :category "industrial")
(set-info :status unsat)
(declare-fun AT0_PROC3_CS () Bool)
(declare-fun AT1_PROC2_TAU () Bool)
(declare-fun AT1_PROC2_SW_C_CS_TAU () Bool)
(declare-fun AT2_PROC1_X () Int)
(declare-fun AT0_PROC1_X () Int)
(declare-fun AT1_PROC1_SW_B_C_TAU () Bool)
(declare-fun AT0_ID0 () Bool)
(declare-fun AT1_PROC2_C () Bool)
(declare-fun AT0_ID1 () Bool)
(declare-fun AT1_PROC2_B () Bool)
(declare-fun AT0_ID2 () Bool)
(declare-fun AT1_PROC2_A () Bool)
(declare-fun AT0_ID3 () Bool)
(declare-fun AT0_PROC3_SW_CS_A_TAU () Bool)
(declare-fun AT0_ID4 () Bool)
(declare-fun AT1_PROC2_SW_A_B_TAU () Bool)
(declare-fun AT1_PROC2_CS () Bool)
(declare-fun AT1_PROC1_WAIT () Bool)
(declare-fun AT2_PROC4_X () Int)
(declare-fun AT0_PROC4_X () Int)
(declare-fun AT2_PROC4_CS () Bool)
(declare-fun AT0_PROC3_TAU () Bool)
(declare-fun AT1_PROC4_WAIT () Bool)
(declare-fun AT0_PROC2_SW_C_B_TAU () Bool)
(declare-fun AT2_Z () Int)
(declare-fun AT0_PROC4_SW_C_B_TAU () Bool)
(declare-fun AT2_PROC1_C () Bool)
(declare-fun AT2_PROC1_B () Bool)
(declare-fun AT2_PROC1_A () Bool)
(declare-fun AT0_PROC1_C () Bool)
(declare-fun AT0_PROC1_B () Bool)
(declare-fun AT0_PROC1_A () Bool)
(declare-fun AT2_PROC1_CS () Bool)
(declare-fun AT1_PROC2_SW_B_C_TAU () Bool)
(declare-fun AT1_PROC4_SW_C_B_TAU () Bool)
(declare-fun AT1_PROC3_X () Int)
(declare-fun AT1_PROC3_TAU () Bool)
(declare-fun AT2_PROC4_C () Bool)
(declare-fun AT0_PROC3_WAIT () Bool)
(declare-fun AT2_PROC4_B () Bool)
(declare-fun AT0_PROC2_CS () Bool)
(declare-fun AT2_PROC4_A () Bool)
(declare-fun AT0_PROC4_C () Bool)
(declare-fun AT0_PROC4_B () Bool)
(declare-fun AT1_ID0 () Bool)
(declare-fun AT0_PROC4_A () Bool)
(declare-fun AT1_ID1 () Bool)
(declare-fun AT1_ID2 () Bool)
(declare-fun AT1_ID3 () Bool)
(declare-fun AT1_ID4 () Bool)
(declare-fun AT0_PROC1_SW_CS_A_TAU () Bool)
(declare-fun AT2_PROC2_X () Int)
(declare-fun AT0_PROC4_TAU () Bool)
(declare-fun AT0_PROC2_X () Int)
(declare-fun AT1_PROC3_CS () Bool)
(declare-fun AT0_PROC4_SW_A_B_TAU () Bool)
(declare-fun AT1_PROC4_SW_C_CS_TAU () Bool)
(declare-fun AT1_PROC3_C () Bool)
(declare-fun AT1_PROC3_B () Bool)
(declare-fun AT1_PROC3_A () Bool)
(declare-fun AT1_PROC3_WAIT () Bool)
(declare-fun AT1_PROC4_SW_A_B_TAU () Bool)
(declare-fun AT1_PROC3_SW_CS_A_TAU () Bool)
(declare-fun AT1_PROC3_SW_B_C_TAU () Bool)
(declare-fun AT1_PROC1_X () Int)
(declare-fun AT2_PROC2_CS () Bool)
(declare-fun AT1_PROC4_TAU () Bool)
(declare-fun AT1_Z () Int)
(declare-fun AT2_PROC2_C () Bool)
(declare-fun AT0_PROC4_SW_B_C_TAU () Bool)
(declare-fun AT2_PROC2_B () Bool)
(declare-fun AT2_PROC2_A () Bool)
(declare-fun AT0_PROC2_C () Bool)
(declare-fun AT2_ID0 () Bool)
(declare-fun AT0_PROC2_SW_C_CS_TAU () Bool)
(declare-fun AT0_PROC2_B () Bool)
(declare-fun AT2_ID1 () Bool)
(declare-fun AT0_PROC2_A () Bool)
(declare-fun AT2_ID2 () Bool)
(declare-fun AT2_ID3 () Bool)
(declare-fun AT0_PROC3_SW_B_C_TAU () Bool)
(declare-fun AT0_PROC1_SW_C_B_TAU () Bool)
(declare-fun AT0_PROC1_CS () Bool)
(declare-fun AT2_ID4 () Bool)
(declare-fun AT0_PROC4_WAIT () Bool)
(declare-fun AT0_PROC1_TAU () Bool)
(declare-fun AT1_PROC4_SW_B_C_TAU () Bool)
(declare-fun AT0_PROC1_SW_C_CS_TAU () Bool)
(declare-fun AT1_PROC4_X () Int)
(declare-fun AT0_PROC4_SW_CS_A_TAU () Bool)
(declare-fun AT0_PROC1_WAIT () Bool)
(declare-fun AT1_PROC3_SW_A_B_TAU () Bool)
(declare-fun AT1_PROC1_SW_C_B_TAU () Bool)
(declare-fun AT0_PROC4_CS () Bool)
(declare-fun AT1_PROC4_SW_CS_A_TAU () Bool)
(declare-fun AT1_PROC1_C () Bool)
(declare-fun AT1_PROC1_SW_C_CS_TAU () Bool)
(declare-fun AT1_PROC1_B () Bool)
(declare-fun AT1_PROC4_CS () Bool)
(declare-fun AT1_PROC1_A () Bool)
(declare-fun AT0_PROC3_SW_A_B_TAU () Bool)
(declare-fun AT0_DELTA () Bool)
(declare-fun AT1_PROC2_SW_CS_A_TAU () Bool)
(declare-fun AT2_PROC3_X () Int)
(declare-fun AT1_PROC1_TAU () Bool)
(declare-fun AT0_PROC3_X () Int)
(declare-fun AT1_PROC3_SW_C_CS_TAU () Bool)
(declare-fun AT1_PROC2_WAIT () Bool)
(declare-fun AT0_PROC2_SW_B_C_TAU () Bool)
(declare-fun AT1_PROC4_C () Bool)
(declare-fun AT1_PROC1_CS () Bool)
(declare-fun AT1_PROC4_B () Bool)
(declare-fun AT1_PROC4_A () Bool)
(declare-fun AT0_PROC3_SW_C_CS_TAU () Bool)
(declare-fun AT0_PROC1_SW_A_B_TAU () Bool)
(declare-fun AT2_PROC3_CS () Bool)
(declare-fun AT0_PROC2_SW_CS_A_TAU () Bool)
(declare-fun AT1_DELTA () Bool)
(declare-fun AT1_PROC2_SW_C_B_TAU () Bool)
(declare-fun AT0_PROC2_TAU () Bool)
(declare-fun AT1_PROC2_X () Int)
(declare-fun AT0_PROC4_SW_C_CS_TAU () Bool)
(declare-fun AT1_PROC3_SW_C_B_TAU () Bool)
(declare-fun AT1_PROC1_SW_A_B_TAU () Bool)
(declare-fun AT0_Z () Int)
(declare-fun AT2_PROC3_C () Bool)
(declare-fun AT2_PROC3_B () Bool)
(declare-fun AT0_PROC2_SW_A_B_TAU () Bool)
(declare-fun AT2_PROC3_A () Bool)
(declare-fun AT0_PROC3_C () Bool)
(declare-fun AT0_PROC3_B () Bool)
(declare-fun AT0_PROC3_A () Bool)
(declare-fun AT1_PROC1_SW_CS_A_TAU () Bool)
(declare-fun AT0_PROC3_SW_C_B_TAU () Bool)
(declare-fun AT0_PROC2_WAIT () Bool)
(declare-fun AT0_PROC1_SW_B_C_TAU () Bool)
(assert (let ((?v_0 (not AT0_PROC1_A)) (?v_1 (not AT0_PROC1_B)) (?v_2 (not AT0_PROC1_C)) (?v_3 (not AT0_PROC1_CS)) (?v_4 (not AT1_PROC1_A)) (?v_5 (not AT1_PROC1_B)) (?v_6 (not AT1_PROC1_C)) (?v_7 (not AT1_PROC1_CS)) (?v_8 (not AT2_PROC1_A)) (?v_9 (not AT2_PROC1_B)) (?v_10 (not AT2_PROC1_C)) (?v_11 (not AT2_PROC1_CS)) (?v_12 (not AT0_PROC2_A)) (?v_13 (not AT0_PROC2_B)) (?v_14 (not AT0_PROC2_C)) (?v_15 (not AT0_PROC2_CS)) (?v_16 (not AT1_PROC2_A)) (?v_17 (not AT1_PROC2_B)) (?v_18 (not AT1_PROC2_C)) (?v_19 (not AT1_PROC2_CS)) (?v_20 (not AT2_PROC2_A)) (?v_21 (not AT2_PROC2_B)) (?v_22 (not AT2_PROC2_C)) (?v_23 (not AT2_PROC2_CS)) (?v_24 (not AT0_PROC3_A)) (?v_25 (not AT0_PROC3_B)) (?v_26 (not AT0_PROC3_C)) (?v_27 (not AT0_PROC3_CS)) (?v_28 (not AT1_PROC3_A)) (?v_29 (not AT1_PROC3_B)) (?v_30 (not AT1_PROC3_C)) (?v_31 (not AT1_PROC3_CS)) (?v_32 (not AT2_PROC3_A)) (?v_33 (not AT2_PROC3_B)) (?v_34 (not AT2_PROC3_C)) (?v_35 (not AT2_PROC3_CS)) (?v_36 (not AT0_PROC4_A)) (?v_37 (not AT0_PROC4_B)) (?v_38 (not AT0_PROC4_C)) (?v_39 (not AT0_PROC4_CS)) (?v_40 (not AT1_PROC4_A)) (?v_41 (not AT1_PROC4_B)) (?v_42 (not AT1_PROC4_C)) (?v_43 (not AT1_PROC4_CS)) (?v_44 (not AT2_PROC4_A)) (?v_45 (not AT2_PROC4_B)) (?v_46 (not AT2_PROC4_C)) (?v_47 (not AT2_PROC4_CS)) (?v_48 (= AT0_PROC1_X AT0_Z)) (?v_49 (> AT0_PROC1_X AT0_Z))) (let ((?v_171 (not ?v_48)) (?v_50 (= AT1_PROC1_X AT1_Z)) (?v_51 (> AT1_PROC1_X AT1_Z))) (let ((?v_170 (not ?v_50)) (?v_52 (= AT2_PROC1_X AT2_Z)) (?v_53 (> AT2_PROC1_X AT2_Z))) (let ((?v_176 (not ?v_52)) (?v_54 (= AT0_PROC2_X AT0_Z)) (?v_55 (> AT0_PROC2_X AT0_Z))) (let ((?v_182 (not ?v_54)) (?v_56 (= AT1_PROC2_X AT1_Z)) (?v_57 (> AT1_PROC2_X AT1_Z))) (let ((?v_181 (not ?v_56)) (?v_58 (= AT2_PROC2_X AT2_Z)) (?v_59 (> AT2_PROC2_X AT2_Z))) (let ((?v_185 (not ?v_58)) (?v_60 (= AT0_PROC3_X AT0_Z)) (?v_61 (> AT0_PROC3_X AT0_Z))) (let ((?v_190 (not ?v_60)) (?v_62 (= AT1_PROC3_X AT1_Z)) (?v_63 (> AT1_PROC3_X AT1_Z))) (let ((?v_189 (not ?v_62)) (?v_64 (= AT2_PROC3_X AT2_Z)) (?v_65 (> AT2_PROC3_X AT2_Z))) (let ((?v_193 (not ?v_64)) (?v_66 (= AT0_PROC4_X AT0_Z)) (?v_67 (> AT0_PROC4_X AT0_Z))) (let ((?v_198 (not ?v_66)) (?v_68 (= AT1_PROC4_X AT1_Z)) (?v_69 (> AT1_PROC4_X AT1_Z))) (let ((?v_197 (not ?v_68)) (?v_70 (= AT2_PROC4_X AT2_Z)) (?v_71 (> AT2_PROC4_X AT2_Z))) (let ((?v_201 (not ?v_70)) (?v_77 (- AT0_PROC1_X AT0_Z))) (let ((?v_74 (<= ?v_77 10)) (?v_84 (- AT1_PROC1_X AT1_Z))) (let ((?v_81 (<= ?v_84 10)) (?v_93 (- AT0_PROC2_X AT0_Z))) (let ((?v_90 (<= ?v_93 10)) (?v_100 (- AT1_PROC2_X AT1_Z))) (let ((?v_97 (<= ?v_100 10)) (?v_107 (- AT0_PROC3_X AT0_Z))) (let ((?v_104 (<= ?v_107 10)) (?v_114 (- AT1_PROC3_X AT1_Z))) (let ((?v_111 (<= ?v_114 10)) (?v_121 (- AT0_PROC4_X AT0_Z))) (let ((?v_118 (<= ?v_121 10)) (?v_128 (- AT1_PROC4_X AT1_Z))) (let ((?v_125 (<= ?v_128 10)) (?v_72 (not AT0_PROC1_SW_A_B_TAU)) (?v_73 (not AT0_PROC1_SW_B_C_TAU)) (?v_75 (not AT0_PROC1_SW_C_B_TAU)) (?v_76 (not AT0_PROC1_SW_C_CS_TAU)) (?v_131 (= AT1_PROC1_X AT0_PROC1_X)) (?v_78 (not AT0_PROC1_SW_CS_A_TAU)) (?v_79 (not AT1_PROC1_SW_A_B_TAU)) (?v_80 (not AT1_PROC1_SW_B_C_TAU)) (?v_82 (not AT1_PROC1_SW_C_B_TAU)) (?v_83 (not AT1_PROC1_SW_C_CS_TAU)) (?v_133 (= AT2_PROC1_X AT1_PROC1_X)) (?v_85 (not AT1_PROC1_SW_CS_A_TAU)) (?v_86 (= AT1_Z AT0_Z)) (?v_87 (= AT2_Z AT1_Z)) (?v_88 (not AT0_PROC2_SW_A_B_TAU)) (?v_89 (not AT0_PROC2_SW_B_C_TAU)) (?v_91 (not AT0_PROC2_SW_C_B_TAU)) (?v_92 (not AT0_PROC2_SW_C_CS_TAU)) (?v_135 (= AT1_PROC2_X AT0_PROC2_X)) (?v_94 (not AT0_PROC2_SW_CS_A_TAU)) (?v_95 (not AT1_PROC2_SW_A_B_TAU)) (?v_96 (not AT1_PROC2_SW_B_C_TAU)) (?v_98 (not AT1_PROC2_SW_C_B_TAU)) (?v_99 (not AT1_PROC2_SW_C_CS_TAU)) (?v_137 (= AT2_PROC2_X AT1_PROC2_X)) (?v_101 (not AT1_PROC2_SW_CS_A_TAU)) (?v_102 (not AT0_PROC3_SW_A_B_TAU)) (?v_103 (not AT0_PROC3_SW_B_C_TAU)) (?v_105 (not AT0_PROC3_SW_C_B_TAU)) (?v_106 (not AT0_PROC3_SW_C_CS_TAU)) (?v_139 (= AT1_PROC3_X AT0_PROC3_X)) (?v_108 (not AT0_PROC3_SW_CS_A_TAU)) (?v_109 (not AT1_PROC3_SW_A_B_TAU)) (?v_110 (not AT1_PROC3_SW_B_C_TAU)) (?v_112 (not AT1_PROC3_SW_C_B_TAU)) (?v_113 (not AT1_PROC3_SW_C_CS_TAU)) (?v_141 (= AT2_PROC3_X AT1_PROC3_X)) (?v_115 (not AT1_PROC3_SW_CS_A_TAU)) (?v_116 (not AT0_PROC4_SW_A_B_TAU)) (?v_117 (not AT0_PROC4_SW_B_C_TAU)) (?v_119 (not AT0_PROC4_SW_C_B_TAU)) (?v_120 (not AT0_PROC4_SW_C_CS_TAU)) (?v_143 (= AT1_PROC4_X AT0_PROC4_X)) (?v_122 (not AT0_PROC4_SW_CS_A_TAU)) (?v_123 (not AT1_PROC4_SW_A_B_TAU)) (?v_124 (not AT1_PROC4_SW_B_C_TAU)) (?v_126 (not AT1_PROC4_SW_C_B_TAU)) (?v_127 (not AT1_PROC4_SW_C_CS_TAU)) (?v_145 (= AT2_PROC4_X AT1_PROC4_X)) (?v_129 (not AT1_PROC4_SW_CS_A_TAU)) (?v_130 (not AT0_PROC1_WAIT)) (?v_147 (not AT0_PROC1_TAU)) (?v_132 (not AT1_PROC1_WAIT)) (?v_149 (not AT1_PROC1_TAU)) (?v_134 (not AT0_PROC2_WAIT)) (?v_150 (not AT0_PROC2_TAU)) (?v_136 (not AT1_PROC2_WAIT)) (?v_152 (not AT1_PROC2_TAU)) (?v_138 (not AT0_PROC3_WAIT)) (?v_154 (not AT0_PROC3_TAU)) (?v_140 (not AT1_PROC3_WAIT)) (?v_155 (not AT1_PROC3_TAU)) (?v_142 (not AT0_PROC4_WAIT)) (?v_156 (not AT0_PROC4_TAU)) (?v_144 (not AT1_PROC4_WAIT)) (?v_157 (not AT1_PROC4_TAU)) (?v_146 (not AT0_DELTA)) (?v_166 (< AT1_Z AT0_Z))) (let ((?v_151 (or ?v_146 ?v_166)) (?v_148 (not AT1_DELTA)) (?v_167 (< AT2_Z AT1_Z))) (let ((?v_153 (or ?v_148 ?v_167)) (?v_158 (< AT1_PROC1_X AT0_PROC1_X)) (?v_168 (not ?v_131)) (?v_159 (< AT2_PROC1_X AT1_PROC1_X)) (?v_174 (not ?v_133)) (?v_160 (< AT1_PROC2_X AT0_PROC2_X)) (?v_180 (not ?v_135)) (?v_161 (< AT2_PROC2_X AT1_PROC2_X)) (?v_184 (not ?v_137)) (?v_162 (< AT1_PROC3_X AT0_PROC3_X)) (?v_188 (not ?v_139)) (?v_163 (< AT2_PROC3_X AT1_PROC3_X)) (?v_192 (not ?v_141)) (?v_164 (< AT1_PROC4_X AT0_PROC4_X)) (?v_196 (not ?v_143)) (?v_165 (< AT2_PROC4_X AT1_PROC4_X)) (?v_200 (not ?v_145)) (?v_169 (not ?v_86)) (?v_173 (not ?v_166)) (?v_175 (not ?v_87)) (?v_179 (not ?v_167))) (let ((?v_172 (or ?v_171 ?v_168)) (?v_178 (< AT1_Z AT1_PROC1_X)) (?v_177 (or ?v_170 ?v_174)) (?v_183 (or ?v_182 ?v_180)) (?v_187 (< AT1_Z AT1_PROC2_X)) (?v_186 (or ?v_181 ?v_184)) (?v_191 (or ?v_190 ?v_188)) (?v_195 (< AT1_Z AT1_PROC3_X)) (?v_194 (or ?v_189 ?v_192)) (?v_199 (or ?v_198 ?v_196)) (?v_203 (< AT1_Z AT1_PROC4_X)) (?v_202 (or ?v_197 ?v_200)) (?v_204 (not AT0_ID0)) (?v_205 (not AT0_ID1)) (?v_206 (not AT0_ID2)) (?v_207 (not AT0_ID3)) (?v_208 (not AT0_ID4)) (?v_209 (not AT1_ID0)) (?v_210 (not AT1_ID1)) (?v_211 (not AT1_ID2)) (?v_212 (not AT1_ID3)) (?v_213 (not AT1_ID4)) (?v_214 (not AT2_ID0)) (?v_215 (not AT2_ID1)) (?v_216 (not AT2_ID2)) (?v_217 (not AT2_ID3)) (?v_218 (not AT2_ID4)) (?v_219 (- AT2_PROC1_X AT2_Z)) (?v_220 (- AT2_PROC2_X AT2_Z)) (?v_221 (- AT2_PROC3_X AT2_Z)) (?v_222 (- AT2_PROC4_X AT2_Z))) (and (and (and (and (and (and (and (and (and (and (and (and (and (and (and (and (and (and (and (and (and (and (and (and (and (and (and (and (and (and (and (and (and (and (and (and (and (and (and (and (and (and (and (and (and (and (and (and (and (and (and (and (and (and (and (and (and (and (and (and (and (and (and (and (and (and (and (and (and (and (and (and (and (and (and (and (and (and (and (and (and (and (and (and (and (and (and (and (and (and (and (and (and (and (and (and (and (and (and (and (and (and (and (and (and (and (and (and (and (and (and (and (and (and (and (and (and (and (and (and (and (and (and (and (and (and (and (and (and (and (and (and (and (and (and (and (and (and (and (and (and (and (and (and (and (and (and (and (and (and (and (and (and (and (and (and (and (and (and (and (and (and (and (and (and (and (and (and (and (and (and (and (and (and (and (and (and (and (and (and (and (and (and (and (and (and (and (and (and (and (and (and (and (and (and (and (and (and (and (and (and (and (and (and (and (and (and (and (and (and (and (and (and (and (and (and (and (and (and (and (and (and (and (and (and (and (and (and (and (and (and (and (and (and (and (and (and (and (and (and (and (and (and (and (and (and (and (and (and (and (and (and (and (and (and (and (and (and (and (and (and (and (and (and (and (and (and (and (and (and (and (and (and (and (and (and (and (and (and (and (and (and (and (and (and (and (and (and (and (and (and (and (and (and (and (and (and (and (and (and (and (and (and (and (and (and (and (and (and (and (and (and (and (and (and (and (and (and (and (and (and (and (and (and (and (and (and (and (and (and (and (and (and (and (and (and (and (and (and (and (and (and (and (and (and (and (and (and (and (and (and (and (and (and (and (and (and (and (and (and (and (and (and (and (and (and (and (and (and (and (and (and (and (and (and (and (and (and (and (and (and (and (and (and (and (and (and (and (and (and (and (and (and (and (and (and (and (and (and (and (and (and (and (and (and (and (and (and (and (and (and (and (and (and (and (and (and (and (and (and (and (and (and (and (and (and (and (and (and (and (and (and (and (and (and (and (and (and (and (and (and (and (and (and (and (and (and (and (and (and (and (and (and (and (and (and (and (and (and (and (and (and (and (and (and (and (and (and (and (and (and (and (and (and (and (and (and (and (and (and (and (and (and (and (and (and (and (and (and (and (and (and (and (and (and (and (and (and (and (and (and (and (and (and (and (and (and (and (and (and (and (and (and (and (and (and (and (and (and (and (and (and (and (and (and (and (and (and (and (and (and (and (and (and (and (and (and (and (and (and (and (and (and (and (and (and (and (and (and (and (and (and (and (and (and (and (and (and (and (and (and (and (and (and (and (and (and (and (and (and (and (and (and (and (and (and (and (and (and (and (and (and (and (and (and (and (and (and (and (and (and (and (and (and (and (and (and (and (and (and (and (and (and (and (and (and (and (and (and (and (and (and (and (and (and (and (and (and (and (and (and (and (and (and (and (and (and (and (and (and (and (and (and (and (and (and (and (and (and (and (and (and (and (and (and (and (and (and (and (and (and (and (and (and (and (and (and (and (and (and (and (and (and (and (and (and (and (and (and (and (and (and (and (and (and (and (and (and (and (and (and (and (and (and (and (and (and (and (and (and (and (and (and (and (and (and (and (and (and (and (and (and (and (and (and (and (and (and (and (and (and (and (and (and (and (and (and (and (and (and (and (and (and (and (and (and (and (and (and (and (or ?v_0 ?v_1) (or ?v_0 ?v_2)) (or ?v_0 ?v_3)) (or ?v_1 ?v_2)) (or ?v_1 ?v_3)) (or ?v_2 ?v_3)) (or ?v_4 ?v_5)) (or ?v_4 ?v_6)) (or ?v_4 ?v_7)) (or ?v_5 ?v_6)) (or ?v_5 ?v_7)) (or ?v_6 ?v_7)) (or ?v_8 ?v_9)) (or ?v_8 ?v_10)) (or ?v_8 ?v_11)) (or ?v_9 ?v_10)) (or ?v_9 ?v_11)) (or ?v_10 ?v_11)) (or ?v_12 ?v_13)) (or ?v_12 ?v_14)) (or ?v_12 ?v_15)) (or ?v_13 ?v_14)) (or ?v_13 ?v_15)) (or ?v_14 ?v_15)) (or ?v_16 ?v_17)) (or ?v_16 ?v_18)) (or ?v_16 ?v_19)) (or ?v_17 ?v_18)) (or ?v_17 ?v_19)) (or ?v_18 ?v_19)) (or ?v_20 ?v_21)) (or ?v_20 ?v_22)) (or ?v_20 ?v_23)) (or ?v_21 ?v_22)) (or ?v_21 ?v_23)) (or ?v_22 ?v_23)) (or ?v_24 ?v_25)) (or ?v_24 ?v_26)) (or ?v_24 ?v_27)) (or ?v_25 ?v_26)) (or ?v_25 ?v_27)) (or ?v_26 ?v_27)) (or ?v_28 ?v_29)) (or ?v_28 ?v_30)) (or ?v_28 ?v_31)) (or ?v_29 ?v_30)) (or ?v_29 ?v_31)) (or ?v_30 ?v_31)) (or ?v_32 ?v_33)) (or ?v_32 ?v_34)) (or ?v_32 ?v_35)) (or ?v_33 ?v_34)) (or ?v_33 ?v_35)) (or ?v_34 ?v_35)) (or ?v_36 ?v_37)) (or ?v_36 ?v_38)) (or ?v_36 ?v_39)) (or ?v_37 ?v_38)) (or ?v_37 ?v_39)) (or ?v_38 ?v_39)) (or ?v_40 ?v_41)) (or ?v_40 ?v_42)) (or ?v_40 ?v_43)) (or ?v_41 ?v_42)) (or ?v_41 ?v_43)) (or ?v_42 ?v_43)) (or ?v_44 ?v_45)) (or ?v_44 ?v_46)) (or ?v_44 ?v_47)) (or ?v_45 ?v_46)) (or ?v_45 ?v_47)) (or ?v_46 ?v_47)) (or ?v_48 ?v_49)) (or ?v_171 (not ?v_49))) (or ?v_50 ?v_51)) (or ?v_170 (not ?v_51))) (or ?v_52 ?v_53)) (or ?v_176 (not ?v_53))) (or ?v_54 ?v_55)) (or ?v_182 (not ?v_55))) (or ?v_56 ?v_57)) (or ?v_181 (not ?v_57))) (or ?v_58 ?v_59)) (or ?v_185 (not ?v_59))) (or ?v_60 ?v_61)) (or ?v_190 (not ?v_61))) (or ?v_62 ?v_63)) (or ?v_189 (not ?v_63))) (or ?v_64 ?v_65)) (or ?v_193 (not ?v_65))) (or ?v_66 ?v_67)) (or ?v_198 (not ?v_67))) (or ?v_68 ?v_69)) (or ?v_197 (not ?v_69))) (or ?v_70 ?v_71)) (or ?v_201 (not ?v_71))) (or ?v_1 ?v_74)) (or ?v_5 ?v_81)) (or ?v_9 (<= ?v_219 10))) (or ?v_13 ?v_90)) (or ?v_17 ?v_97)) (or ?v_21 (<= ?v_220 10))) (or ?v_25 ?v_104)) (or ?v_29 ?v_111)) (or ?v_33 (<= ?v_221 10))) (or ?v_37 ?v_118)) (or ?v_41 ?v_125)) (or ?v_45 (<= ?v_222 10))) (or (or (or (or (or (or AT0_PROC1_WAIT AT0_DELTA) AT0_PROC1_SW_A_B_TAU) AT0_PROC1_SW_B_C_TAU) AT0_PROC1_SW_C_B_TAU) AT0_PROC1_SW_C_CS_TAU) AT0_PROC1_SW_CS_A_TAU)) (or (or (or (or (or (or AT1_PROC1_WAIT AT1_DELTA) AT1_PROC1_SW_A_B_TAU) AT1_PROC1_SW_B_C_TAU) AT1_PROC1_SW_C_B_TAU) AT1_PROC1_SW_C_CS_TAU) AT1_PROC1_SW_CS_A_TAU)) (or (or (or (or (or (or AT0_PROC2_WAIT AT0_DELTA) AT0_PROC2_SW_A_B_TAU) AT0_PROC2_SW_B_C_TAU) AT0_PROC2_SW_C_B_TAU) AT0_PROC2_SW_C_CS_TAU) AT0_PROC2_SW_CS_A_TAU)) (or (or (or (or (or (or AT1_PROC2_WAIT AT1_DELTA) AT1_PROC2_SW_A_B_TAU) AT1_PROC2_SW_B_C_TAU) AT1_PROC2_SW_C_B_TAU) AT1_PROC2_SW_C_CS_TAU) AT1_PROC2_SW_CS_A_TAU)) (or (or (or (or (or (or AT0_PROC3_WAIT AT0_DELTA) AT0_PROC3_SW_A_B_TAU) AT0_PROC3_SW_B_C_TAU) AT0_PROC3_SW_C_B_TAU) AT0_PROC3_SW_C_CS_TAU) AT0_PROC3_SW_CS_A_TAU)) (or (or (or (or (or (or AT1_PROC3_WAIT AT1_DELTA) AT1_PROC3_SW_A_B_TAU) AT1_PROC3_SW_B_C_TAU) AT1_PROC3_SW_C_B_TAU) AT1_PROC3_SW_C_CS_TAU) AT1_PROC3_SW_CS_A_TAU)) (or (or (or (or (or (or AT0_PROC4_WAIT AT0_DELTA) AT0_PROC4_SW_A_B_TAU) AT0_PROC4_SW_B_C_TAU) AT0_PROC4_SW_C_B_TAU) AT0_PROC4_SW_C_CS_TAU) AT0_PROC4_SW_CS_A_TAU)) (or (or (or (or (or (or AT1_PROC4_WAIT AT1_DELTA) AT1_PROC4_SW_A_B_TAU) AT1_PROC4_SW_B_C_TAU) AT1_PROC4_SW_C_B_TAU) AT1_PROC4_SW_C_CS_TAU) AT1_PROC4_SW_CS_A_TAU)) (or ?v_72 AT0_PROC1_A)) (or ?v_72 AT0_PROC1_TAU)) (or ?v_72 AT1_PROC1_B)) (or ?v_72 ?v_50)) (or ?v_73 AT0_PROC1_B)) (or ?v_73 AT0_PROC1_TAU)) (or ?v_73 AT1_PROC1_C)) (or ?v_73 ?v_74)) (or ?v_73 ?v_50)) (or ?v_75 AT0_PROC1_C)) (or ?v_75 AT0_PROC1_TAU)) (or ?v_75 AT1_PROC1_B)) (or ?v_75 ?v_50)) (or ?v_76 AT0_PROC1_C)) (or ?v_76 AT0_PROC1_TAU)) (or ?v_76 AT1_PROC1_CS)) (or ?v_76 (> ?v_77 10))) (or ?v_76 ?v_131)) (or ?v_78 AT0_PROC1_CS)) (or ?v_78 AT0_PROC1_TAU)) (or ?v_78 AT1_PROC1_A)) (or ?v_78 ?v_50)) (or ?v_79 AT1_PROC1_A)) (or ?v_79 AT1_PROC1_TAU)) (or ?v_79 AT2_PROC1_B)) (or ?v_79 ?v_52)) (or ?v_80 AT1_PROC1_B)) (or ?v_80 AT1_PROC1_TAU)) (or ?v_80 AT2_PROC1_C)) (or ?v_80 ?v_81)) (or ?v_80 ?v_52)) (or ?v_82 AT1_PROC1_C)) (or ?v_82 AT1_PROC1_TAU)) (or ?v_82 AT2_PROC1_B)) (or ?v_82 ?v_52)) (or ?v_83 AT1_PROC1_C)) (or ?v_83 AT1_PROC1_TAU)) (or ?v_83 AT2_PROC1_CS)) (or ?v_83 (> ?v_84 10))) (or ?v_83 ?v_133)) (or ?v_85 AT1_PROC1_CS)) (or ?v_85 AT1_PROC1_TAU)) (or ?v_85 AT2_PROC1_A)) (or ?v_85 ?v_52)) (or ?v_72 ?v_86)) (or ?v_73 ?v_86)) (or ?v_75 ?v_86)) (or ?v_76 ?v_86)) (or ?v_78 ?v_86)) (or ?v_79 ?v_87)) (or ?v_80 ?v_87)) (or ?v_82 ?v_87)) (or ?v_83 ?v_87)) (or ?v_85 ?v_87)) (or ?v_88 AT0_PROC2_A)) (or ?v_88 AT0_PROC2_TAU)) (or ?v_88 AT1_PROC2_B)) (or ?v_88 ?v_56)) (or ?v_89 AT0_PROC2_B)) (or ?v_89 AT0_PROC2_TAU)) (or ?v_89 AT1_PROC2_C)) (or ?v_89 ?v_90)) (or ?v_89 ?v_56)) (or ?v_91 AT0_PROC2_C)) (or ?v_91 AT0_PROC2_TAU)) (or ?v_91 AT1_PROC2_B)) (or ?v_91 ?v_56)) (or ?v_92 AT0_PROC2_C)) (or ?v_92 AT0_PROC2_TAU)) (or ?v_92 AT1_PROC2_CS)) (or ?v_92 (> ?v_93 10))) (or ?v_92 ?v_135)) (or ?v_94 AT0_PROC2_CS)) (or ?v_94 AT0_PROC2_TAU)) (or ?v_94 AT1_PROC2_A)) (or ?v_94 ?v_56)) (or ?v_95 AT1_PROC2_A)) (or ?v_95 AT1_PROC2_TAU)) (or ?v_95 AT2_PROC2_B)) (or ?v_95 ?v_58)) (or ?v_96 AT1_PROC2_B)) (or ?v_96 AT1_PROC2_TAU)) (or ?v_96 AT2_PROC2_C)) (or ?v_96 ?v_97)) (or ?v_96 ?v_58)) (or ?v_98 AT1_PROC2_C)) (or ?v_98 AT1_PROC2_TAU)) (or ?v_98 AT2_PROC2_B)) (or ?v_98 ?v_58)) (or ?v_99 AT1_PROC2_C)) (or ?v_99 AT1_PROC2_TAU)) (or ?v_99 AT2_PROC2_CS)) (or ?v_99 (> ?v_100 10))) (or ?v_99 ?v_137)) (or ?v_101 AT1_PROC2_CS)) (or ?v_101 AT1_PROC2_TAU)) (or ?v_101 AT2_PROC2_A)) (or ?v_101 ?v_58)) (or ?v_88 ?v_86)) (or ?v_89 ?v_86)) (or ?v_91 ?v_86)) (or ?v_92 ?v_86)) (or ?v_94 ?v_86)) (or ?v_95 ?v_87)) (or ?v_96 ?v_87)) (or ?v_98 ?v_87)) (or ?v_99 ?v_87)) (or ?v_101 ?v_87)) (or ?v_102 AT0_PROC3_A)) (or ?v_102 AT0_PROC3_TAU)) (or ?v_102 AT1_PROC3_B)) (or ?v_102 ?v_62)) (or ?v_103 AT0_PROC3_B)) (or ?v_103 AT0_PROC3_TAU)) (or ?v_103 AT1_PROC3_C)) (or ?v_103 ?v_104)) (or ?v_103 ?v_62)) (or ?v_105 AT0_PROC3_C)) (or ?v_105 AT0_PROC3_TAU)) (or ?v_105 AT1_PROC3_B)) (or ?v_105 ?v_62)) (or ?v_106 AT0_PROC3_C)) (or ?v_106 AT0_PROC3_TAU)) (or ?v_106 AT1_PROC3_CS)) (or ?v_106 (> ?v_107 10))) (or ?v_106 ?v_139)) (or ?v_108 AT0_PROC3_CS)) (or ?v_108 AT0_PROC3_TAU)) (or ?v_108 AT1_PROC3_A)) (or ?v_108 ?v_62)) (or ?v_109 AT1_PROC3_A)) (or ?v_109 AT1_PROC3_TAU)) (or ?v_109 AT2_PROC3_B)) (or ?v_109 ?v_64)) (or ?v_110 AT1_PROC3_B)) (or ?v_110 AT1_PROC3_TAU)) (or ?v_110 AT2_PROC3_C)) (or ?v_110 ?v_111)) (or ?v_110 ?v_64)) (or ?v_112 AT1_PROC3_C)) (or ?v_112 AT1_PROC3_TAU)) (or ?v_112 AT2_PROC3_B)) (or ?v_112 ?v_64)) (or ?v_113 AT1_PROC3_C)) (or ?v_113 AT1_PROC3_TAU)) (or ?v_113 AT2_PROC3_CS)) (or ?v_113 (> ?v_114 10))) (or ?v_113 ?v_141)) (or ?v_115 AT1_PROC3_CS)) (or ?v_115 AT1_PROC3_TAU)) (or ?v_115 AT2_PROC3_A)) (or ?v_115 ?v_64)) (or ?v_102 ?v_86)) (or ?v_103 ?v_86)) (or ?v_105 ?v_86)) (or ?v_106 ?v_86)) (or ?v_108 ?v_86)) (or ?v_109 ?v_87)) (or ?v_110 ?v_87)) (or ?v_112 ?v_87)) (or ?v_113 ?v_87)) (or ?v_115 ?v_87)) (or ?v_116 AT0_PROC4_A)) (or ?v_116 AT0_PROC4_TAU)) (or ?v_116 AT1_PROC4_B)) (or ?v_116 ?v_68)) (or ?v_117 AT0_PROC4_B)) (or ?v_117 AT0_PROC4_TAU)) (or ?v_117 AT1_PROC4_C)) (or ?v_117 ?v_118)) (or ?v_117 ?v_68)) (or ?v_119 AT0_PROC4_C)) (or ?v_119 AT0_PROC4_TAU)) (or ?v_119 AT1_PROC4_B)) (or ?v_119 ?v_68)) (or ?v_120 AT0_PROC4_C)) (or ?v_120 AT0_PROC4_TAU)) (or ?v_120 AT1_PROC4_CS)) (or ?v_120 (> ?v_121 10))) (or ?v_120 ?v_143)) (or ?v_122 AT0_PROC4_CS)) (or ?v_122 AT0_PROC4_TAU)) (or ?v_122 AT1_PROC4_A)) (or ?v_122 ?v_68)) (or ?v_123 AT1_PROC4_A)) (or ?v_123 AT1_PROC4_TAU)) (or ?v_123 AT2_PROC4_B)) (or ?v_123 ?v_70)) (or ?v_124 AT1_PROC4_B)) (or ?v_124 AT1_PROC4_TAU)) (or ?v_124 AT2_PROC4_C)) (or ?v_124 ?v_125)) (or ?v_124 ?v_70)) (or ?v_126 AT1_PROC4_C)) (or ?v_126 AT1_PROC4_TAU)) (or ?v_126 AT2_PROC4_B)) (or ?v_126 ?v_70)) (or ?v_127 AT1_PROC4_C)) (or ?v_127 AT1_PROC4_TAU)) (or ?v_127 AT2_PROC4_CS)) (or ?v_127 (> ?v_128 10))) (or ?v_127 ?v_145)) (or ?v_129 AT1_PROC4_CS)) (or ?v_129 AT1_PROC4_TAU)) (or ?v_129 AT2_PROC4_A)) (or ?v_129 ?v_70)) (or ?v_116 ?v_86)) (or ?v_117 ?v_86)) (or ?v_119 ?v_86)) (or ?v_120 ?v_86)) (or ?v_122 ?v_86)) (or ?v_123 ?v_87)) (or ?v_124 ?v_87)) (or ?v_126 ?v_87)) (or ?v_127 ?v_87)) (or ?v_129 ?v_87)) (or (or ?v_130 ?v_0) AT1_PROC1_A)) (or (or ?v_130 AT0_PROC1_A) ?v_4)) (or (or ?v_130 ?v_1) AT1_PROC1_B)) (or (or ?v_130 AT0_PROC1_B) ?v_5)) (or (or ?v_130 ?v_2) AT1_PROC1_C)) (or (or ?v_130 AT0_PROC1_C) ?v_6)) (or (or ?v_130 ?v_3) AT1_PROC1_CS)) (or (or ?v_130 AT0_PROC1_CS) ?v_7)) (or ?v_130 ?v_147)) (or ?v_130 ?v_131)) (or ?v_130 ?v_86)) (or (or ?v_132 ?v_4) AT2_PROC1_A)) (or (or ?v_132 AT1_PROC1_A) ?v_8)) (or (or ?v_132 ?v_5) AT2_PROC1_B)) (or (or ?v_132 AT1_PROC1_B) ?v_9)) (or (or ?v_132 ?v_6) AT2_PROC1_C)) (or (or ?v_132 AT1_PROC1_C) ?v_10)) (or (or ?v_132 ?v_7) AT2_PROC1_CS)) (or (or ?v_132 AT1_PROC1_CS) ?v_11)) (or ?v_132 ?v_149)) (or ?v_132 ?v_133)) (or ?v_132 ?v_87)) (or (or ?v_134 ?v_12) AT1_PROC2_A)) (or (or ?v_134 AT0_PROC2_A) ?v_16)) (or (or ?v_134 ?v_13) AT1_PROC2_B)) (or (or ?v_134 AT0_PROC2_B) ?v_17)) (or (or ?v_134 ?v_14) AT1_PROC2_C)) (or (or ?v_134 AT0_PROC2_C) ?v_18)) (or (or ?v_134 ?v_15) AT1_PROC2_CS)) (or (or ?v_134 AT0_PROC2_CS) ?v_19)) (or ?v_134 ?v_150)) (or ?v_134 ?v_135)) (or ?v_134 ?v_86)) (or (or ?v_136 ?v_16) AT2_PROC2_A)) (or (or ?v_136 AT1_PROC2_A) ?v_20)) (or (or ?v_136 ?v_17) AT2_PROC2_B)) (or (or ?v_136 AT1_PROC2_B) ?v_21)) (or (or ?v_136 ?v_18) AT2_PROC2_C)) (or (or ?v_136 AT1_PROC2_C) ?v_22)) (or (or ?v_136 ?v_19) AT2_PROC2_CS)) (or (or ?v_136 AT1_PROC2_CS) ?v_23)) (or ?v_136 ?v_152)) (or ?v_136 ?v_137)) (or ?v_136 ?v_87)) (or (or ?v_138 ?v_24) AT1_PROC3_A)) (or (or ?v_138 AT0_PROC3_A) ?v_28)) (or (or ?v_138 ?v_25) AT1_PROC3_B)) (or (or ?v_138 AT0_PROC3_B) ?v_29)) (or (or ?v_138 ?v_26) AT1_PROC3_C)) (or (or ?v_138 AT0_PROC3_C) ?v_30)) (or (or ?v_138 ?v_27) AT1_PROC3_CS)) (or (or ?v_138 AT0_PROC3_CS) ?v_31)) (or ?v_138 ?v_154)) (or ?v_138 ?v_139)) (or ?v_138 ?v_86)) (or (or ?v_140 ?v_28) AT2_PROC3_A)) (or (or ?v_140 AT1_PROC3_A) ?v_32)) (or (or ?v_140 ?v_29) AT2_PROC3_B)) (or (or ?v_140 AT1_PROC3_B) ?v_33)) (or (or ?v_140 ?v_30) AT2_PROC3_C)) (or (or ?v_140 AT1_PROC3_C) ?v_34)) (or (or ?v_140 ?v_31) AT2_PROC3_CS)) (or (or ?v_140 AT1_PROC3_CS) ?v_35)) (or ?v_140 ?v_155)) (or ?v_140 ?v_141)) (or ?v_140 ?v_87)) (or (or ?v_142 ?v_36) AT1_PROC4_A)) (or (or ?v_142 AT0_PROC4_A) ?v_40)) (or (or ?v_142 ?v_37) AT1_PROC4_B)) (or (or ?v_142 AT0_PROC4_B) ?v_41)) (or (or ?v_142 ?v_38) AT1_PROC4_C)) (or (or ?v_142 AT0_PROC4_C) ?v_42)) (or (or ?v_142 ?v_39) AT1_PROC4_CS)) (or (or ?v_142 AT0_PROC4_CS) ?v_43)) (or ?v_142 ?v_156)) (or ?v_142 ?v_143)) (or ?v_142 ?v_86)) (or (or ?v_144 ?v_40) AT2_PROC4_A)) (or (or ?v_144 AT1_PROC4_A) ?v_44)) (or (or ?v_144 ?v_41) AT2_PROC4_B)) (or (or ?v_144 AT1_PROC4_B) ?v_45)) (or (or ?v_144 ?v_42) AT2_PROC4_C)) (or (or ?v_144 AT1_PROC4_C) ?v_46)) (or (or ?v_144 ?v_43) AT2_PROC4_CS)) (or (or ?v_144 AT1_PROC4_CS) ?v_47)) (or ?v_144 ?v_157)) (or ?v_144 ?v_145)) (or ?v_144 ?v_87)) (or (or ?v_146 ?v_0) AT1_PROC1_A)) (or (or ?v_146 AT0_PROC1_A) ?v_4)) (or (or ?v_146 ?v_1) AT1_PROC1_B)) (or (or ?v_146 AT0_PROC1_B) ?v_5)) (or (or ?v_146 ?v_2) AT1_PROC1_C)) (or (or ?v_146 AT0_PROC1_C) ?v_6)) (or (or ?v_146 ?v_3) AT1_PROC1_CS)) (or (or ?v_146 AT0_PROC1_CS) ?v_7)) (or ?v_146 ?v_131)) (or ?v_146 ?v_147)) ?v_151) (or (or ?v_148 ?v_4) AT2_PROC1_A)) (or (or ?v_148 AT1_PROC1_A) ?v_8)) (or (or ?v_148 ?v_5) AT2_PROC1_B)) (or (or ?v_148 AT1_PROC1_B) ?v_9)) (or (or ?v_148 ?v_6) AT2_PROC1_C)) (or (or ?v_148 AT1_PROC1_C) ?v_10)) (or (or ?v_148 ?v_7) AT2_PROC1_CS)) (or (or ?v_148 AT1_PROC1_CS) ?v_11)) (or ?v_148 ?v_133)) (or ?v_148 ?v_149)) ?v_153) (or (or ?v_146 ?v_12) AT1_PROC2_A)) (or (or ?v_146 AT0_PROC2_A) ?v_16)) (or (or ?v_146 ?v_13) AT1_PROC2_B)) (or (or ?v_146 AT0_PROC2_B) ?v_17)) (or (or ?v_146 ?v_14) AT1_PROC2_C)) (or (or ?v_146 AT0_PROC2_C) ?v_18)) (or (or ?v_146 ?v_15) AT1_PROC2_CS)) (or (or ?v_146 AT0_PROC2_CS) ?v_19)) (or ?v_146 ?v_135)) (or ?v_146 ?v_150)) ?v_151) (or (or ?v_148 ?v_16) AT2_PROC2_A)) (or (or ?v_148 AT1_PROC2_A) ?v_20)) (or (or ?v_148 ?v_17) AT2_PROC2_B)) (or (or ?v_148 AT1_PROC2_B) ?v_21)) (or (or ?v_148 ?v_18) AT2_PROC2_C)) (or (or ?v_148 AT1_PROC2_C) ?v_22)) (or (or ?v_148 ?v_19) AT2_PROC2_CS)) (or (or ?v_148 AT1_PROC2_CS) ?v_23)) (or ?v_148 ?v_137)) (or ?v_148 ?v_152)) ?v_153) (or (or ?v_146 ?v_24) AT1_PROC3_A)) (or (or ?v_146 AT0_PROC3_A) ?v_28)) (or (or ?v_146 ?v_25) AT1_PROC3_B)) (or (or ?v_146 AT0_PROC3_B) ?v_29)) (or (or ?v_146 ?v_26) AT1_PROC3_C)) (or (or ?v_146 AT0_PROC3_C) ?v_30)) (or (or ?v_146 ?v_27) AT1_PROC3_CS)) (or (or ?v_146 AT0_PROC3_CS) ?v_31)) (or ?v_146 ?v_139)) (or ?v_146 ?v_154)) ?v_151) (or (or ?v_148 ?v_28) AT2_PROC3_A)) (or (or ?v_148 AT1_PROC3_A) ?v_32)) (or (or ?v_148 ?v_29) AT2_PROC3_B)) (or (or ?v_148 AT1_PROC3_B) ?v_33)) (or (or ?v_148 ?v_30) AT2_PROC3_C)) (or (or ?v_148 AT1_PROC3_C) ?v_34)) (or (or ?v_148 ?v_31) AT2_PROC3_CS)) (or (or ?v_148 AT1_PROC3_CS) ?v_35)) (or ?v_148 ?v_141)) (or ?v_148 ?v_155)) ?v_153) (or (or ?v_146 ?v_36) AT1_PROC4_A)) (or (or ?v_146 AT0_PROC4_A) ?v_40)) (or (or ?v_146 ?v_37) AT1_PROC4_B)) (or (or ?v_146 AT0_PROC4_B) ?v_41)) (or (or ?v_146 ?v_38) AT1_PROC4_C)) (or (or ?v_146 AT0_PROC4_C) ?v_42)) (or (or ?v_146 ?v_39) AT1_PROC4_CS)) (or (or ?v_146 AT0_PROC4_CS) ?v_43)) (or ?v_146 ?v_143)) (or ?v_146 ?v_156)) ?v_151) (or (or ?v_148 ?v_40) AT2_PROC4_A)) (or (or ?v_148 AT1_PROC4_A) ?v_44)) (or (or ?v_148 ?v_41) AT2_PROC4_B)) (or (or ?v_148 AT1_PROC4_B) ?v_45)) (or (or ?v_148 ?v_42) AT2_PROC4_C)) (or (or ?v_148 AT1_PROC4_C) ?v_46)) (or (or ?v_148 ?v_43) AT2_PROC4_CS)) (or (or ?v_148 AT1_PROC4_CS) ?v_47)) (or ?v_148 ?v_145)) (or ?v_148 ?v_157)) ?v_153) (or ?v_131 ?v_158)) (or ?v_168 (not ?v_158))) (or ?v_133 ?v_159)) (or ?v_174 (not ?v_159))) (or ?v_135 ?v_160)) (or ?v_180 (not ?v_160))) (or ?v_137 ?v_161)) (or ?v_184 (not ?v_161))) (or ?v_139 ?v_162)) (or ?v_188 (not ?v_162))) (or ?v_141 ?v_163)) (or ?v_192 (not ?v_163))) (or ?v_143 ?v_164)) (or ?v_196 (not ?v_164))) (or ?v_145 ?v_165)) (or ?v_200 (not ?v_165))) (or ?v_146 ?v_148)) (or ?v_86 ?v_166)) (or ?v_169 ?v_173)) (or ?v_87 ?v_167)) (or ?v_175 ?v_179)) (or (or (or ?v_48 ?v_168) ?v_169) ?v_170)) (or (or (or ?v_171 ?v_131) ?v_169) ?v_170)) (or (or ?v_172 ?v_86) ?v_170)) (or (or ?v_172 ?v_169) ?v_50)) (or (or (or (not (< AT0_Z AT0_PROC1_X)) ?v_168) ?v_173) ?v_178)) (or (or (or ?v_50 ?v_174) ?v_175) ?v_176)) (or (or (or ?v_170 ?v_133) ?v_175) ?v_176)) (or (or ?v_177 ?v_87) ?v_176)) (or (or ?v_177 ?v_175) ?v_52)) (or (or (or (not ?v_178) ?v_174) ?v_179) (< AT2_Z AT2_PROC1_X))) (or (or (or ?v_54 ?v_180) ?v_169) ?v_181)) (or (or (or ?v_182 ?v_135) ?v_169) ?v_181)) (or (or ?v_183 ?v_86) ?v_181)) (or (or ?v_183 ?v_169) ?v_56)) (or (or (or (not (< AT0_Z AT0_PROC2_X)) ?v_180) ?v_173) ?v_187)) (or (or (or ?v_56 ?v_184) ?v_175) ?v_185)) (or (or (or ?v_181 ?v_137) ?v_175) ?v_185)) (or (or ?v_186 ?v_87) ?v_185)) (or (or ?v_186 ?v_175) ?v_58)) (or (or (or (not ?v_187) ?v_184) ?v_179) (< AT2_Z AT2_PROC2_X))) (or (or (or ?v_60 ?v_188) ?v_169) ?v_189)) (or (or (or ?v_190 ?v_139) ?v_169) ?v_189)) (or (or ?v_191 ?v_86) ?v_189)) (or (or ?v_191 ?v_169) ?v_62)) (or (or (or (not (< AT0_Z AT0_PROC3_X)) ?v_188) ?v_173) ?v_195)) (or (or (or ?v_62 ?v_192) ?v_175) ?v_193)) (or (or (or ?v_189 ?v_141) ?v_175) ?v_193)) (or (or ?v_194 ?v_87) ?v_193)) (or (or ?v_194 ?v_175) ?v_64)) (or (or (or (not ?v_195) ?v_192) ?v_179) (< AT2_Z AT2_PROC3_X))) (or (or (or ?v_66 ?v_196) ?v_169) ?v_197)) (or (or (or ?v_198 ?v_143) ?v_169) ?v_197)) (or (or ?v_199 ?v_86) ?v_197)) (or (or ?v_199 ?v_169) ?v_68)) (or (or (or (not (< AT0_Z AT0_PROC4_X)) ?v_196) ?v_173) ?v_203)) (or (or (or ?v_68 ?v_200) ?v_175) ?v_201)) (or (or (or ?v_197 ?v_145) ?v_175) ?v_201)) (or (or ?v_202 ?v_87) ?v_201)) (or (or ?v_202 ?v_175) ?v_70)) (or (or (or (not ?v_203) ?v_200) ?v_179) (< AT2_Z AT2_PROC4_X))) AT0_PROC1_A) AT0_PROC2_A) AT0_PROC3_A) AT0_PROC4_A) ?v_48) ?v_54) ?v_60) ?v_66) AT0_ID0) (or (or (or ?v_130 ?v_134) ?v_138) ?v_142)) (or (or (or ?v_132 ?v_136) ?v_140) ?v_144)) (or ?v_204 ?v_205)) (or ?v_204 ?v_206)) (or ?v_204 ?v_207)) (or ?v_204 ?v_208)) (or ?v_205 ?v_206)) (or ?v_205 ?v_207)) (or ?v_205 ?v_208)) (or ?v_206 ?v_207)) (or ?v_206 ?v_208)) (or ?v_207 ?v_208)) (or ?v_209 ?v_210)) (or ?v_209 ?v_211)) (or ?v_209 ?v_212)) (or ?v_209 ?v_213)) (or ?v_210 ?v_211)) (or ?v_210 ?v_212)) (or ?v_210 ?v_213)) (or ?v_211 ?v_212)) (or ?v_211 ?v_213)) (or ?v_212 ?v_213)) (or ?v_214 ?v_215)) (or ?v_214 ?v_216)) (or ?v_214 ?v_217)) (or ?v_214 ?v_218)) (or ?v_215 ?v_216)) (or ?v_215 ?v_217)) (or ?v_215 ?v_218)) (or ?v_216 ?v_217)) (or ?v_216 ?v_218)) (or ?v_217 ?v_218)) (or ?v_72 AT0_ID0)) (or ?v_72 AT1_ID0)) (or ?v_73 AT1_ID1)) (or ?v_75 AT0_ID0)) (or ?v_75 AT1_ID0)) (or ?v_76 AT0_ID1)) (or ?v_76 AT1_ID1)) (or ?v_78 AT1_ID0)) (or (or ?v_146 ?v_205) AT1_ID1)) (or ?v_88 AT0_ID0)) (or ?v_88 AT1_ID0)) (or ?v_89 AT1_ID2)) (or ?v_91 AT0_ID0)) (or ?v_91 AT1_ID0)) (or ?v_92 AT0_ID2)) (or ?v_92 AT1_ID2)) (or ?v_94 AT1_ID0)) (or (or ?v_146 ?v_206) AT1_ID2)) (or ?v_102 AT0_ID0)) (or ?v_102 AT1_ID0)) (or ?v_103 AT1_ID3)) (or ?v_105 AT0_ID0)) (or ?v_105 AT1_ID0)) (or ?v_106 AT0_ID3)) (or ?v_106 AT1_ID3)) (or ?v_108 AT1_ID0)) (or (or ?v_146 ?v_207) AT1_ID3)) (or ?v_116 AT0_ID0)) (or ?v_116 AT1_ID0)) (or ?v_117 AT1_ID4)) (or ?v_119 AT0_ID0)) (or ?v_119 AT1_ID0)) (or ?v_120 AT0_ID4)) (or ?v_120 AT1_ID4)) (or ?v_122 AT1_ID0)) (or (or ?v_146 ?v_208) AT1_ID4)) (or (or ?v_146 ?v_204) AT1_ID0)) (or ?v_79 AT1_ID0)) (or ?v_79 AT2_ID0)) (or ?v_80 AT2_ID1)) (or ?v_82 AT1_ID0)) (or ?v_82 AT2_ID0)) (or ?v_83 AT1_ID1)) (or ?v_83 AT2_ID1)) (or ?v_85 AT2_ID0)) (or (or ?v_148 ?v_210) AT2_ID1)) (or ?v_95 AT1_ID0)) (or ?v_95 AT2_ID0)) (or ?v_96 AT2_ID2)) (or ?v_98 AT1_ID0)) (or ?v_98 AT2_ID0)) (or ?v_99 AT1_ID2)) (or ?v_99 AT2_ID2)) (or ?v_101 AT2_ID0)) (or (or ?v_148 ?v_211) AT2_ID2)) (or ?v_109 AT1_ID0)) (or ?v_109 AT2_ID0)) (or ?v_110 AT2_ID3)) (or ?v_112 AT1_ID0)) (or ?v_112 AT2_ID0)) (or ?v_113 AT1_ID3)) (or ?v_113 AT2_ID3)) (or ?v_115 AT2_ID0)) (or (or ?v_148 ?v_212) AT2_ID3)) (or ?v_123 AT1_ID0)) (or ?v_123 AT2_ID0)) (or ?v_124 AT2_ID4)) (or ?v_126 AT1_ID0)) (or ?v_126 AT2_ID0)) (or ?v_127 AT1_ID4)) (or ?v_127 AT2_ID4)) (or ?v_129 AT2_ID0)) (or (or ?v_148 ?v_213) AT2_ID4)) (or (or ?v_148 ?v_209) AT2_ID0)) (or ?v_4 AT2_PROC1_A)) (or AT1_PROC1_A ?v_8)) (or ?v_5 AT2_PROC1_B)) (or AT1_PROC1_B ?v_9)) (or ?v_6 AT2_PROC1_C)) (or AT1_PROC1_C ?v_10)) (or ?v_7 AT2_PROC1_CS)) (or AT1_PROC1_CS ?v_11)) (or ?v_210 AT2_ID1)) (or AT1_ID1 ?v_215)) (= ?v_84 ?v_219)) (or ?v_16 AT2_PROC2_A)) (or AT1_PROC2_A ?v_20)) (or ?v_17 AT2_PROC2_B)) (or AT1_PROC2_B ?v_21)) (or ?v_18 AT2_PROC2_C)) (or AT1_PROC2_C ?v_22)) (or ?v_19 AT2_PROC2_CS)) (or AT1_PROC2_CS ?v_23)) (or ?v_211 AT2_ID2)) (or AT1_ID2 ?v_216)) (= ?v_100 ?v_220)) (or ?v_28 AT2_PROC3_A)) (or AT1_PROC3_A ?v_32)) (or ?v_29 AT2_PROC3_B)) (or AT1_PROC3_B ?v_33)) (or ?v_30 AT2_PROC3_C)) (or AT1_PROC3_C ?v_34)) (or ?v_31 AT2_PROC3_CS)) (or AT1_PROC3_CS ?v_35)) (or ?v_212 AT2_ID3)) (or AT1_ID3 ?v_217)) (= ?v_114 ?v_221)) (or ?v_40 AT2_PROC4_A)) (or AT1_PROC4_A ?v_44)) (or ?v_41 AT2_PROC4_B)) (or AT1_PROC4_B ?v_45)) (or ?v_42 AT2_PROC4_C)) (or AT1_PROC4_C ?v_46)) (or ?v_43 AT2_PROC4_CS)) (or AT1_PROC4_CS ?v_47)) (or ?v_213 AT2_ID4)) (or AT1_ID4 ?v_218)) (= ?v_128 ?v_222)) (or AT1_PROC1_B AT2_PROC1_B)) ?v_7) ?v_11))))))))))))))))))))))))))
(check-sat)
(exit)
